NAME: cum250.tsp
TYPE: TSP
COMMENT: User-generated TSP file
DIMENSION: 250
EDGE_WEIGHT_TYPE: EUC_2D
NODE_COORD_SECTION
1 230.0 58.0
2 242.0 53.0
3 225.0 164.0
4 181.0 128.0
5 158.0 207.0
6 146.0 197.0
7 34.0 214.0
8 229.0 131.0
9 226.0 16.0
10 107.0 159.0
11 20.0 14.0
12 131.0 49.0
13 126.0 46.0
14 44.0 51.0
15 3.0 98.0
16 149.0 174.0
17 81.0 71.0
18 168.0 148.0
19 87.0 111.0
20 163.0 61.0
21 135.0 10.0
22 43.0 126.0
23 79.0 55.0
24 99.0 173.0
25 145.0 16.0
26 158.0 105.0
27 87.0 6.0
28 152.0 41.0
29 18.0 185.0
30 221.0 239.0
31 205.0 93.0
32 154.0 242.0
33 31.0 219.0
34 190.0 179.0
35 158.0 239.0
36 151.0 21.0
37 108.0 97.0
38 165.0 250.0
39 170.0 24.0
40 234.0 146.0
41 114.0 56.0
42 134.0 59.0
43 102.0 195.0
44 214.0 6.0
45 36.0 37.0
46 215.0 64.0
47 16.0 87.0
48 117.0 105.0
49 177.0 220.0
50 18.0 97.0
51 169.0 132.0
52 185.0 87.0
53 83.0 216.0
54 180.0 52.0
55 125.0 30.0
56 122.0 129.0
57 156.0 50.0
58 240.0 102.0
59 106.0 220.0
60 52.0 1.0
61 55.0 176.0
62 8.0 106.0
63 162.0 25.0
64 131.0 17.0
65 170.0 198.0
66 209.0 46.0
67 37.0 174.0
68 84.0 220.0
69 108.0 27.0
70 44.0 168.0
71 181.0 85.0
72 135.0 230.0
73 229.0 208.0
74 239.0 90.0
75 102.0 247.0
76 139.0 219.0
77 152.0 167.0
78 116.0 213.0
79 131.0 203.0
80 47.0 182.0
81 21.0 12.0
82 158.0 101.0
83 204.0 206.0
84 201.0 250.0
85 192.0 12.0
86 105.0 110.0
87 232.0 243.0
88 6.0 108.0
89 241.0 60.0
90 181.0 70.0
91 3.0 201.0
92 49.0 15.0
93 187.0 76.0
94 78.0 141.0
95 193.0 113.0
96 102.0 65.0
97 109.0 221.0
98 121.0 143.0
99 39.0 145.0
100 45.0 246.0
101 87.0 69.0
102 189.0 180.0
103 83.0 48.0
104 237.0 218.0
105 216.0 180.0
106 40.0 72.0
107 185.0 129.0
108 206.0 212.0
109 36.0 169.0
110 19.0 225.0
111 149.0 216.0
112 135.0 147.0
113 16.0 112.0
114 89.0 146.0
115 110.0 38.0
116 231.0 50.0
117 112.0 160.0
118 40.0 60.0
119 8.0 173.0
120 109.0 3.0
121 125.0 212.0
122 68.0 80.0
123 27.0 157.0
124 207.0 54.0
125 66.0 191.0
126 26.0 247.0
127 219.0 246.0
128 97.0 120.0
129 218.0 25.0
130 84.0 94.0
131 129.0 80.0
132 230.0 98.0
133 110.0 58.0
134 197.0 133.0
135 14.0 102.0
136 73.0 198.0
137 169.0 72.0
138 124.0 115.0
139 80.0 38.0
140 89.0 144.0
141 169.0 213.0
142 64.0 72.0
143 201.0 232.0
144 187.0 75.0
145 28.0 156.0
146 89.0 75.0
147 132.0 179.0
148 19.0 64.0
149 216.0 25.0
150 168.0 250.0
151 66.0 11.0
152 83.0 102.0
153 226.0 154.0
154 181.0 100.0
155 238.0 36.0
156 134.0 108.0
157 245.0 199.0
158 62.0 116.0
159 131.0 221.0
160 88.0 79.0
161 200.0 61.0
162 65.0 53.0
163 60.0 54.0
164 109.0 17.0
165 168.0 152.0
166 243.0 1.0
167 71.0 135.0
168 8.0 187.0
169 24.0 171.0
170 103.0 209.0
171 79.0 192.0
172 62.0 59.0
173 126.0 102.0
174 176.0 62.0
175 233.0 241.0
176 135.0 119.0
177 116.0 188.0
178 208.0 64.0
179 80.0 47.0
180 195.0 35.0
181 157.0 160.0
182 246.0 8.0
183 142.0 42.0
184 2.0 82.0
185 24.0 241.0
186 246.0 226.0
187 103.0 158.0
188 241.0 21.0
189 242.0 1.0
190 202.0 107.0
191 167.0 95.0
192 197.0 235.0
193 147.0 137.0
194 7.0 2.0
195 60.0 101.0
196 28.0 103.0
197 132.0 76.0
198 238.0 12.0
199 1.0 237.0
200 169.0 196.0
201 139.0 235.0
202 173.0 81.0
203 17.0 37.0
204 114.0 240.0
205 181.0 3.0
206 115.0 210.0
207 218.0 130.0
208 205.0 243.0
209 172.0 165.0
210 187.0 19.0
211 217.0 168.0
212 207.0 137.0
213 93.0 115.0
214 98.0 180.0
215 203.0 248.0
216 237.0 175.0
217 81.0 49.0
218 36.0 36.0
219 234.0 157.0
220 143.0 237.0
221 189.0 247.0
222 39.0 182.0
223 62.0 146.0
224 167.0 99.0
225 24.0 68.0
226 240.0 195.0
227 187.0 155.0
228 162.0 134.0
229 234.0 5.0
230 15.0 161.0
231 148.0 189.0
232 18.0 186.0
233 31.0 234.0
234 121.0 46.0
235 105.0 104.0
236 103.0 242.0
237 104.0 50.0
238 218.0 179.0
239 48.0 200.0
240 54.0 164.0
241 248.0 141.0
242 53.0 24.0
243 56.0 64.0
244 179.0 215.0
245 126.0 193.0
246 47.0 74.0
247 28.0 245.0
248 221.0 225.0
249 169.0 57.0
250 156.0 99.0
EOF





